160 121 78 82 193 54 199 50 94 46 3 118 20 23 120 134 117 83 195 127 113 124 33 45 86 185 6 162 63 4 154 14 8 191 32 52 98 69 41 122 53 176 179 165 28 10 152 62 105 95 115 9 171 91 181 169 149 15 67 177 184 85 55 175 30 119 64 22 189 12 99 146 157 168 35 19 104 136 26 182 137 16 42 139 141 18 100 17 161 133 31 84 197 89 56 178 93 151 163 131 44 125 27 51 110 34 147 180 101 80 129 130 66 96 60 72 1 150 40 38 0 68 76 29 190 188 166 155 102 2 71 107 47 65 112 192 24 61 145 25 173 109 111 158 128 153 172 77 37 13 156 70 21 126 36 187 49 132 198 7 87 59 116 135 114 142 5 194 75 106 11 164 88 79 170 144 143 167 108 74 103 92 57 97 148 58 81 174 39 73 159 43 123 140 90 186 196 138 183 48 

